p cnf 33 80
1 0
-2 10 10 10 10 0
-3 11 12 13 13 13 0
-5 15 15 15 0
-7 19 19 19 0
-1 8 0
-1 9 0
-1 9 0
-1 9 0
-1 9 0
-4 14 0
-4 14 0
-4 14 0
-4 14 0
-6 16 0
-6 16 0
-6 16 0
-6 16 0
-6 17 0
-6 18 0
-8 1 0
-8 2 0
-9 1 0
-9 3 0
-9 1 0
-9 3 0
-9 1 0
-9 3 0
-9 1 0
-9 3 0
-10 2 0
-10 3 0
-10 2 0
-10 3 0
-10 2 0
-10 3 0
-10 2 0
-10 3 0
-11 3 0
-11 1 0
-12 3 0
-12 4 0
-13 3 0
-13 6 0
-13 3 0
-13 6 0
-13 3 0
-13 6 0
-14 4 0
-14 3 0
-14 4 0
-14 3 0
-14 4 0
-14 3 0
-14 4 0
-14 3 0
-15 5 0
-15 6 0
-15 5 0
-15 6 0
-15 5 0
-15 6 0
-16 6 0
-16 3 0
-16 6 0
-16 3 0
-16 6 0
-16 3 0
-16 6 0
-16 3 0
-17 6 0
-17 5 0
-18 6 0
-18 7 0
-19 7 0
-19 6 0
-19 7 0
-19 6 0
-19 7 0
-19 6 0
